(set-info :smt-lib-version 2.6)
(set-logic UFNIA)
(set-info :source |
Generated by: Geoff Sutcliffe
Generated on: 2026-03-11
Generator: TPTPWorld
Application: Benchmarking automated theorem provers
Time limit: 120.0

These benchmarks are translations from the TPTP Library (Thousands of
Problems for Theorem Provers), see http://www.cs.miami.edu/~tptp/

The TPTP is maintained by Geoff Sutcliffe, and he contributed this
selection of benchmarks to SMT-LIB.  They were exported from the
v9.2.1 realease of TPTP.
|)
(set-info :category "industrial")
(set-info :status unknown)
; SZS status Success
(declare-sort $$unsorted 0)
(declare-sort tptp.uni 0)
(declare-sort tptp.ty 0)
(declare-fun tptp.sort (tptp.ty tptp.uni) Bool)
(declare-fun tptp.witness (tptp.ty) tptp.uni)
(assert (forall ((A tptp.ty)) (tptp.sort A (tptp.witness A))))
(declare-fun tptp.int () tptp.ty)
(declare-fun tptp.real () tptp.ty)
(declare-sort tptp.bool 0)
(declare-fun tptp.bool1 () tptp.ty)
(declare-fun tptp.true () tptp.bool)
(declare-fun tptp.false () tptp.bool)
(declare-fun tptp.match_bool (tptp.ty tptp.bool tptp.uni tptp.uni) tptp.uni)
(assert (forall ((A tptp.ty) (X tptp.bool) (X1 tptp.uni) (X2 tptp.uni)) (tptp.sort A (tptp.match_bool A X X1 X2))))
(assert (forall ((A tptp.ty) (Z tptp.uni) (Z1 tptp.uni)) (=> (tptp.sort A Z) (= (tptp.match_bool A tptp.true Z Z1) Z))))
(assert (forall ((A tptp.ty) (Z tptp.uni) (Z1 tptp.uni)) (=> (tptp.sort A Z1) (= (tptp.match_bool A tptp.false Z Z1) Z1))))
(assert (not (= tptp.true tptp.false)))
(assert (forall ((U tptp.bool)) (or (= U tptp.true) (= U tptp.false))))
(declare-sort tptp.tuple0 0)
(declare-fun tptp.tuple01 () tptp.ty)
(declare-fun tptp.tuple02 () tptp.tuple0)
(assert (forall ((U tptp.tuple0)) (= U tptp.tuple02)))
(declare-fun tptp.qtmark () tptp.ty)
(assert (forall ((X Int) (Y Int) (Z Int)) (=> (<= X Y) (=> (<= 0 Z) (<= (* X Z) (* Y Z))))))
(declare-fun tptp.map (tptp.ty tptp.ty) tptp.ty)
(declare-fun tptp.get (tptp.ty tptp.ty tptp.uni tptp.uni) tptp.uni)
(assert (forall ((A tptp.ty) (B tptp.ty) (X tptp.uni) (X1 tptp.uni)) (tptp.sort B (tptp.get B A X X1))))
(declare-fun tptp.set (tptp.ty tptp.ty tptp.uni tptp.uni tptp.uni) tptp.uni)
(assert (forall ((A tptp.ty) (B tptp.ty) (X tptp.uni) (X1 tptp.uni) (X2 tptp.uni)) (tptp.sort (tptp.map A B) (tptp.set B A X X1 X2))))
(assert (forall ((A tptp.ty) (B tptp.ty) (M tptp.uni) (A1 tptp.uni) (A2 tptp.uni) (B1 tptp.uni)) (=> (tptp.sort B B1) (=> (= A1 A2) (= (tptp.get B A (tptp.set B A M A1 B1) A2) B1)))))
(assert (forall ((A tptp.ty) (B tptp.ty) (M tptp.uni) (A1 tptp.uni) (A2 tptp.uni)) (=> (tptp.sort A A1) (=> (tptp.sort A A2) (forall ((B1 tptp.uni)) (=> (not (= A1 A2)) (= (tptp.get B A (tptp.set B A M A1 B1) A2) (tptp.get B A M A2))))))))
(declare-fun tptp.const (tptp.ty tptp.ty tptp.uni) tptp.uni)
(assert (forall ((A tptp.ty) (B tptp.ty) (X tptp.uni)) (tptp.sort (tptp.map A B) (tptp.const B A X))))
(assert (forall ((A tptp.ty) (B tptp.ty) (B1 tptp.uni) (A1 tptp.uni)) (=> (tptp.sort B B1) (= (tptp.get B A (tptp.const B A B1) A1) B1))))
(declare-fun tptp.array (tptp.ty) tptp.ty)
(declare-fun tptp.mk_array (tptp.ty Int tptp.uni) tptp.uni)
(assert (forall ((A tptp.ty) (X Int) (X1 tptp.uni)) (tptp.sort (tptp.array A) (tptp.mk_array A X X1))))
(declare-fun tptp.length (tptp.ty tptp.uni) Int)
(assert (forall ((A tptp.ty) (U Int) (U1 tptp.uni)) (= (tptp.length A (tptp.mk_array A U U1)) U)))
(declare-fun tptp.elts (tptp.ty tptp.uni) tptp.uni)
(assert (forall ((A tptp.ty) (X tptp.uni)) (tptp.sort (tptp.map tptp.int A) (tptp.elts A X))))
(assert (forall ((A tptp.ty) (U Int) (U1 tptp.uni)) (=> (tptp.sort (tptp.map tptp.int A) U1) (= (tptp.elts A (tptp.mk_array A U U1)) U1))))
(assert (forall ((A tptp.ty) (U tptp.uni)) (= U (tptp.mk_array A (tptp.length A U) (tptp.elts A U)))))
(declare-fun tptp.get1 (tptp.ty tptp.uni Int) tptp.uni)
(assert (forall ((A tptp.ty) (X tptp.uni) (X1 Int)) (tptp.sort A (tptp.get1 A X X1))))
(declare-fun tptp.t2tb (Int) tptp.uni)
(assert (forall ((X Int)) (tptp.sort tptp.int (tptp.t2tb X))))
(declare-fun tptp.tb2t (tptp.uni) Int)
(assert (forall ((I Int)) (= (tptp.tb2t (tptp.t2tb I)) I)))
(assert (forall ((J tptp.uni)) (= (tptp.t2tb (tptp.tb2t J)) J)))
(assert (forall ((A tptp.ty) (A1 tptp.uni) (I Int)) (= (tptp.get1 A A1 I) (tptp.get A tptp.int (tptp.elts A A1) (tptp.t2tb I)))))
(declare-fun tptp.set1 (tptp.ty tptp.uni Int tptp.uni) tptp.uni)
(assert (forall ((A tptp.ty) (X tptp.uni) (X1 Int) (X2 tptp.uni)) (tptp.sort (tptp.array A) (tptp.set1 A X X1 X2))))
(assert (forall ((A tptp.ty) (A1 tptp.uni) (I Int) (V tptp.uni)) (= (tptp.set1 A A1 I V) (tptp.mk_array A (tptp.length A A1) (tptp.set A tptp.int (tptp.elts A A1) (tptp.t2tb I) V)))))
(declare-fun tptp.make (tptp.ty Int tptp.uni) tptp.uni)
(assert (forall ((A tptp.ty) (X Int) (X1 tptp.uni)) (tptp.sort (tptp.array A) (tptp.make A X X1))))
(assert (forall ((A tptp.ty) (N Int) (V tptp.uni)) (= (tptp.make A N V) (tptp.mk_array A N (tptp.const A tptp.int V)))))
(declare-fun tptp.ref (tptp.ty) tptp.ty)
(declare-fun tptp.mk_ref (tptp.ty tptp.uni) tptp.uni)
(assert (forall ((A tptp.ty) (X tptp.uni)) (tptp.sort (tptp.ref A) (tptp.mk_ref A X))))
(declare-fun tptp.contents (tptp.ty tptp.uni) tptp.uni)
(assert (forall ((A tptp.ty) (X tptp.uni)) (tptp.sort A (tptp.contents A X))))
(assert (forall ((A tptp.ty) (U tptp.uni)) (=> (tptp.sort A U) (= (tptp.contents A (tptp.mk_ref A U)) U))))
(assert (forall ((A tptp.ty) (U tptp.uni)) (=> (tptp.sort (tptp.ref A) U) (= U (tptp.mk_ref A (tptp.contents A U))))))
(declare-fun tptp.prefix_tl (Int) Int)
(assert (forall ((X Int)) (= (tptp.prefix_tl X) (- (- X) 1))))
(declare-sort tptp.map_int_int 0)
(declare-fun tptp.pr (tptp.map_int_int Int) Bool)
(declare-fun tptp.t2tb1 (tptp.map_int_int) tptp.uni)
(assert (forall ((X tptp.map_int_int)) (tptp.sort (tptp.map tptp.int tptp.int) (tptp.t2tb1 X))))
(declare-fun tptp.tb2t1 (tptp.uni) tptp.map_int_int)
(assert (forall ((I tptp.map_int_int)) (= (tptp.tb2t1 (tptp.t2tb1 I)) I)))
(assert (forall ((J tptp.uni)) (= (tptp.t2tb1 (tptp.tb2t1 J)) J)))
(assert (forall ((A tptp.map_int_int) (N Int)) (= (tptp.pr A N) (<= 0 (tptp.tb2t (tptp.get tptp.int tptp.int (tptp.t2tb1 A) (tptp.t2tb N)))))))
(declare-fun tptp.num_of (tptp.map_int_int Int Int) Int)
(assert (forall ((P tptp.map_int_int) (A Int) (B Int)) (=> (<= B A) (= (tptp.num_of P A B) 0))))
(assert (forall ((P tptp.map_int_int) (A Int) (B Int)) (let ((_let_1 (- B 1))) (=> (< A B) (=> (not (tptp.pr P _let_1)) (= (tptp.num_of P A B) (tptp.num_of P A _let_1)))))))
(assert (forall ((P tptp.map_int_int) (A Int) (B Int)) (let ((_let_1 (- B 1))) (=> (< A B) (=> (tptp.pr P _let_1) (= (tptp.num_of P A B) (+ 1 (tptp.num_of P A _let_1))))))))
(assert (forall ((P tptp.map_int_int) (A Int) (B Int)) (let ((_let_1 (tptp.num_of P A B))) (=> (< A B) (and (<= 0 _let_1) (<= _let_1 (- B A)))))))
(assert (forall ((P tptp.map_int_int) (A Int) (B Int) (C Int)) (=> (and (<= A B) (<= B C)) (= (tptp.num_of P A C) (+ (tptp.num_of P A B) (tptp.num_of P B C))))))
(assert (forall ((P tptp.map_int_int) (A Int) (B Int)) (=> (< A B) (=> (not (tptp.pr P A)) (= (tptp.num_of P A B) (tptp.num_of P (+ A 1) B))))))
(assert (forall ((P tptp.map_int_int) (A Int) (B Int)) (=> (< A B) (=> (tptp.pr P A) (= (tptp.num_of P A B) (+ 1 (tptp.num_of P (+ A 1) B)))))))
(assert (forall ((P tptp.map_int_int) (A Int) (B Int)) (=> (forall ((N Int)) (=> (and (<= A N) (< N B)) (not (tptp.pr P N)))) (= (tptp.num_of P A B) 0))))
(assert (forall ((P tptp.map_int_int) (A Int) (B Int)) (=> (<= A B) (=> (forall ((N Int)) (=> (and (<= A N) (< N B)) (tptp.pr P N))) (= (tptp.num_of P A B) (- B A))))))
(assert (forall ((P tptp.map_int_int) (I Int) (J Int) (K Int)) (=> (and (<= I J) (<= J K)) (<= (tptp.num_of P I J) (tptp.num_of P I K)))))
(assert (forall ((P tptp.map_int_int) (I Int) (J Int) (K Int) (L Int)) (=> (and (<= I J) (<= J K) (< K L)) (=> (tptp.pr P K) (< (tptp.num_of P I J) (tptp.num_of P I L))))))
(assert (forall ((P1 tptp.map_int_int) (P2 tptp.map_int_int) (A Int) (B Int)) (=> (forall ((J Int)) (=> (and (<= A J) (< J B)) (=> (tptp.pr P1 J) (tptp.pr P2 J)))) (<= (tptp.num_of P1 A B) (tptp.num_of P2 A B)))))
(assert (forall ((P1 tptp.map_int_int) (P2 tptp.map_int_int) (A Int) (B Int) (I Int)) (=> (and (<= A I) (< I B)) (=> (forall ((J Int)) (=> (and (<= A J) (< J B)) (=> (tptp.pr P1 J) (tptp.pr P2 J)))) (=> (not (tptp.pr P1 I)) (=> (tptp.pr P2 I) (< (tptp.num_of P1 A B) (tptp.num_of P2 A B))))))))
(assert (forall ((M tptp.map_int_int) (L Int) (R Int) (I Int) (V Int)) (let ((_let_1 (tptp.t2tb I))) (let ((_let_2 (tptp.t2tb1 M))) (=> (and (<= L I) (< I R)) (=> (<= 0 (tptp.tb2t (tptp.get tptp.int tptp.int _let_2 _let_1))) (=> (< V 0) (< (tptp.num_of (tptp.tb2t1 (tptp.set tptp.int tptp.int _let_2 _let_1 (tptp.t2tb V))) L R) (tptp.num_of M L R)))))))))
(declare-sort tptp.array_int 0)
(declare-fun tptp.is_permutation (tptp.array_int) Bool)
(declare-fun tptp.t2tb2 (tptp.array_int) tptp.uni)
(assert (forall ((X tptp.array_int)) (tptp.sort (tptp.array tptp.int) (tptp.t2tb2 X))))
(declare-fun tptp.tb2t2 (tptp.uni) tptp.array_int)
(assert (forall ((I tptp.array_int)) (= (tptp.tb2t2 (tptp.t2tb2 I)) I)))
(assert (forall ((J tptp.uni)) (= (tptp.t2tb2 (tptp.tb2t2 J)) J)))
(assert (forall ((A tptp.array_int)) (= (tptp.is_permutation A) (forall ((I Int)) (let ((_let_1 (tptp.t2tb2 A))) (let ((_let_2 (tptp.length tptp.int _let_1))) (let ((_let_3 (tptp.tb2t (tptp.get1 tptp.int _let_1 I)))) (=> (and (<= 0 I) (< I _let_2)) (and (<= 0 _let_3) (< _let_3 _let_2) (forall ((J Int)) (let ((_let_1 (tptp.t2tb2 A))) (=> (and (<= 0 J) (< J (tptp.length tptp.int _let_1))) (=> (not (= I J)) (not (= (tptp.tb2t (tptp.get1 tptp.int _let_1 I)) (tptp.tb2t (tptp.get1 tptp.int _let_1 J)))))))))))))))))
(assert (forall ((A tptp.array_int) (B tptp.array_int)) (=> (= (tptp.length tptp.int (tptp.t2tb2 A)) (tptp.length tptp.int (tptp.t2tb2 B))) (=> (tptp.is_permutation A) (=> (forall ((I Int)) (let ((_let_1 (tptp.t2tb2 B))) (let ((_let_2 (tptp.length tptp.int _let_1))) (let ((_let_3 (tptp.tb2t (tptp.get1 tptp.int _let_1 I)))) (=> (and (<= 0 I) (< I _let_2)) (and (<= 0 _let_3) (< _let_3 _let_2))))))) (=> (forall ((I Int)) (let ((_let_1 (tptp.t2tb2 B))) (=> (and (<= 0 I) (< I (tptp.length tptp.int _let_1))) (= (tptp.tb2t (tptp.get1 tptp.int (tptp.t2tb2 A) (tptp.tb2t (tptp.get1 tptp.int _let_1 I)))) I)))) (tptp.is_permutation B)))))))
(declare-fun tptp.loopinvariant (tptp.array_int tptp.array_int Int Int Int) Bool)
(assert (forall ((Old tptp.array_int) (A tptp.array_int) (M Int) (Mqt Int) (N Int)) (= (tptp.loopinvariant Old A M Mqt N) (and (forall ((E Int)) (let ((_let_1 (tptp.tb2t (tptp.get1 tptp.int (tptp.t2tb2 A) E)))) (=> (and (<= 0 E) (< E N)) (and (<= (- N) _let_1) (< _let_1 N))))) (forall ((E Int)) (=> (and (< M E) (< E N)) (<= 0 (tptp.tb2t (tptp.get1 tptp.int (tptp.t2tb2 A) E))))) (forall ((E Int)) (=> (and (< M E) (< E N)) (= (tptp.tb2t (tptp.get1 tptp.int (tptp.t2tb2 Old) (tptp.tb2t (tptp.get1 tptp.int (tptp.t2tb2 A) E)))) E))) (forall ((E Int)) (let ((_let_1 (tptp.tb2t (tptp.get1 tptp.int (tptp.t2tb2 A) E)))) (=> (and (<= 0 E) (<= E Mqt)) (=> (<= 0 _let_1) (= (tptp.tb2t (tptp.get1 tptp.int (tptp.t2tb2 Old) E)) _let_1))))) (forall ((E Int)) (=> (and (<= 0 E) (<= E M)) (<= (tptp.tb2t (tptp.get1 tptp.int (tptp.t2tb2 A) E)) M))) (forall ((E Int)) (let ((_let_1 (tptp.t2tb2 A))) (let ((_let_2 (tptp.tb2t (tptp.get1 tptp.int _let_1 E)))) (let ((_let_3 (tptp.prefix_tl _let_2))) (=> (and (<= 0 E) (<= E Mqt)) (=> (< _let_2 0) (and (= (tptp.tb2t (tptp.get1 tptp.int (tptp.t2tb2 Old) _let_3)) E) (=> (<= _let_3 M) (< (tptp.tb2t (tptp.get1 tptp.int _let_1 _let_3)) 0)))))))))))))
(assert (let ((_let_1 (<= 0 3))) (not (and _let_1 (=> _let_1 (and (<= 0 0) (< 0 3) (forall ((A tptp.map_int_int)) (let ((_let_1 (tptp.t2tb 0))) (=> (and (<= 0 3) (= A (tptp.tb2t1 (tptp.set tptp.int tptp.int (tptp.const tptp.int tptp.int _let_1) _let_1 (tptp.t2tb 2))))) (and (<= 0 2) (< 2 3) (forall ((A1 tptp.map_int_int)) (=> (and (<= 0 3) (= A1 (tptp.tb2t1 (tptp.set tptp.int tptp.int (tptp.t2tb1 A) (tptp.t2tb 2) (tptp.t2tb 0))))) (and (<= 0 1) (< 1 3) (forall ((A2 tptp.map_int_int)) (let ((_let_1 (tptp.t2tb 1))) (=> (and (<= 0 3) (= A2 (tptp.tb2t1 (tptp.set tptp.int tptp.int (tptp.t2tb1 A1) _let_1 _let_1)))) (tptp.is_permutation (tptp.tb2t2 (tptp.mk_array tptp.int 3 (tptp.t2tb1 A2))))))))))))))))))))
(check-sat)
(exit)
